\ LP format - for model browsing. Use MPS format to capture full model detail.
Minimize
  0 B18(0) + 0 B20(0) + 0 B22(0) + 0 B23(0) + 0 B26(0) + 0 B28(0) + 0 B30(0)
   + 0 B32(0) + 0 B36(0) + 0 B38(0) + 0 B39(0) + 0 B42(0) + 0 B43(0)
   + 0 B45(0) + 0 B46(0) + 0 B47(0) + 0 B48(0) + 0 B53(0) + 0 B54(0)
   + 0 B55(0) + 0 B56(0) + 0 B58(0) + 0 B60(0) + 0 B63(0) + 0 B64(0)
   + 0 B65(0) + 0 B68(0) + 0 B69(0) + 0 B72(0) + 0 B73(0) + 0 B74(0)
   + 0 B75(0) + 0 B76(0) + 0 B77(0) + 0 B78(0) + 0 B80(0) + 0 B81(0)
   + 0 B82(0) + 0 B83(0) + 0 B84(0) + 0 B85(0) + 0 B86(0) + 0 B88(0)
   + 0 B89(0) + 0 B90(0) + 0 B91(0) + 0 B92(0) + 0 B93(0) + 0 B94(0)
   + 0 B95(0) + 0 B96(0) + 0 B97(0) + 0 B98(0) + I117(1)
Subject To
 c0: - 150 B0(11) - 160 B1(7) - 65 B6(13) - 78 B7(7) - 190 B12(11)
   - 100 B13(7) - I99(12) - I100(8) - I105(14) - I106(8) - I111(12)
   - I112(8) + I117(1) >= 0
 c1: B0(11) + B1(7) = 1
 c2: B2(11) + B3(11) = 1
 c3: B4(8) + B5(12) = 1
 c4: B6(13) + B7(7) = 1
 c5: B8(9) + B9(13) = 1
 c6: B10(8) + B11(14) = 1
 c7: B12(11) + B13(7) = 1
 c8: B14(9) + B15(11) = 1
 c9: B16(8) + B17(10) = 1
 c10: - 1e+07 B0(11) + I99(12) <= 0
 c11: - 1e+07 B1(7) + I100(8) <= 0
 c12: - 1e+07 B2(11) + I101(12) <= 0
 c13: - 1e+07 B3(11) + I102(12) <= 0
 c14: - 1e+07 B4(8) + I103(8) <= 0
 c15: - 1e+07 B5(12) + I104(12) <= 0
 c16: - 1e+07 B6(13) + I105(14) <= 0
 c17: - 1e+07 B7(7) + I106(8) <= 0
 c18: - 1e+07 B8(9) + I107(10) <= 0
 c19: - 1e+07 B9(13) + I108(14) <= 0
 c20: - 1e+07 B10(8) + I109(8) <= 0
 c21: - 1e+07 B11(14) + I110(14) <= 0
 c22: - 1e+07 B12(11) + I111(12) <= 0
 c23: - 1e+07 B13(7) + I112(8) <= 0
 c24: - 1e+07 B14(9) + I113(10) <= 0
 c25: - 1e+07 B15(11) + I114(12) <= 0
 c26: - 1e+07 B16(8) + I115(8) <= 0
 c27: - 1e+07 B17(10) + I116(10) <= 0
 c28: - 130 B2(11) - 140 B3(11) + I99(12) + I100(8) - I101(12) - I102(12)
   >= 0
 c29: - 117 B4(8) - 125 B5(12) + I101(12) + I102(12) - I103(8) - I104(12)
   >= 0
 c30: - 66 B8(9) - 55 B9(13) + I105(14) + I106(8) - I107(10) - I108(14)
   >= 0
 c31: - 214 B10(8) - 150 B11(14) + I107(10) + I108(14) - I109(8) - I110(14)
   >= 0
 c32: - 80 B14(9) - 70 B15(11) + I111(12) + I112(8) - I113(10) - I114(12)
   >= 0
 c33: - 87 B16(8) - 62 B17(10) + I113(10) + I114(12) - I115(8) - I116(10)
   >= 0
 c34: - 1e+07 B0(11) - 1e+07 B3(11) + 1e+07 B19(2) - I99(12) + I102(12)
   >= -1.9999637e+07
 c35: - 1e+07 B0(11) - 1e+07 B3(11) - 1e+07 B19(2) + I99(12) - I102(12)
   >= -2.9999667e+07
 c36: - 1e+07 B1(7) - 1e+07 B7(7) + 1e+07 B21(2) - I100(8) + I106(8)
   >= -1.999963e+07
 c37: - 1e+07 B1(7) - 1e+07 B7(7) - 1e+07 B21(2) + I100(8) - I106(8)
   >= -2.9999544e+07
 c38: - 1e+07 B0(11) - 1e+07 B12(11) + 1e+07 B24(4) - I99(12) + I111(12)
   >= -1.9999592e+07
 c39: - 1e+07 B0(11) - 1e+07 B12(11) - 1e+07 B24(4) + I99(12) - I111(12)
   >= -2.9999596e+07
 c40: - 1e+07 B1(7) - 1e+07 B13(7) + 1e+07 B24(4) - I100(8) + I112(8)
   >= -1.999914e+07
 c41: - 1e+07 B1(7) - 1e+07 B13(7) - 1e+07 B24(4) + I100(8) - I112(8)
   >= -2.9999639e+07
 c42: - 1e+07 B0(11) - 1e+07 B15(11) + 1e+07 B25(2) - I99(12) + I114(12)
   >= -1.9999538e+07
 c43: - 1e+07 B0(11) - 1e+07 B15(11) - 1e+07 B25(2) + I99(12) - I114(12)
   >= -2.9999414e+07
 c44: - 1e+07 B0(11) - 1e+07 B3(11) + 1e+07 B27(2) + I99(12) - I102(12)
   >= -1.9999667e+07
 c45: - 1e+07 B0(11) - 1e+07 B3(11) - 1e+07 B27(2) - I99(12) + I102(12)
   >= -2.9999637e+07
 c46: - 1e+07 B2(11) - 1e+07 B5(12) + 1e+07 B29(2) - I101(12) + I104(12)
   >= -1.9999237e+07
 c47: - 1e+07 B2(11) - 1e+07 B5(12) - 1e+07 B29(2) + I101(12) - I104(12)
   >= -2.9999759e+07
 c48: - 1e+07 B2(11) - 1e+07 B8(9) + 1e+07 B31(2) - I101(12) + I107(10)
   >= -1.9999669e+07
 c49: - 1e+07 B2(11) - 1e+07 B8(9) - 1e+07 B31(2) + I101(12) - I107(10)
   >= -2.9999858e+07
 c50: - 1e+07 B3(11) - 1e+07 B12(11) + 1e+07 B33(2) - I102(12) + I111(12)
   >= -1.9999666e+07
 c51: - 1e+07 B3(11) - 1e+07 B12(11) - 1e+07 B33(2) + I102(12) - I111(12)
   >= -2.9999138e+07
 c52: - 1e+07 B3(11) - 1e+07 B15(11) + 1e+07 B34(2) - I102(12) + I114(12)
   >= -1.9999362e+07
 c53: - 1e+07 B3(11) - 1e+07 B15(11) - 1e+07 B34(2) + I102(12) - I114(12)
   >= -2.9999265e+07
 c54: - 1e+07 B2(11) - 1e+07 B17(10) + 1e+07 B35(2) - I101(12) + I116(10)
   >= -1.9999663e+07
 c55: - 1e+07 B2(11) - 1e+07 B17(10) - 1e+07 B35(2) + I101(12) - I116(10)
   >= -2.9999626e+07
 c56: - 1e+07 B2(11) - 1e+07 B5(12) + 1e+07 B37(2) + I101(12) - I104(12)
   >= -1.9999759e+07
 c57: - 1e+07 B2(11) - 1e+07 B5(12) - 1e+07 B37(2) - I101(12) + I104(12)
   >= -2.9999237e+07
 c58: - 1e+07 B5(12) - 1e+07 B8(9) + 1e+07 B40(2) - I104(12) + I107(10)
   >= -1.9999231e+07
 c59: - 1e+07 B5(12) - 1e+07 B8(9) - 1e+07 B40(2) + I104(12) - I107(10)
   >= -2.9999289e+07
 c60: - 1e+07 B4(8) - 1e+07 B10(8) + 1e+07 B41(2) - I103(8) + I109(8)
   >= -1.9999659e+07
 c61: - 1e+07 B4(8) - 1e+07 B10(8) - 1e+07 B41(2) + I103(8) - I109(8)
   >= -2.9999585e+07
 c62: - 1e+07 B4(8) - 1e+07 B16(8) + 1e+07 B44(4) - I103(8) + I115(8)
   >= -1.9999503e+07
 c63: - 1e+07 B4(8) - 1e+07 B16(8) - 1e+07 B44(4) + I103(8) - I115(8)
   >= -2.9999789e+07
 c64: - 1e+07 B5(12) - 1e+07 B17(10) + 1e+07 B44(4) - I104(12) + I116(10)
   >= -1.9999759e+07
 c65: - 1e+07 B5(12) - 1e+07 B17(10) - 1e+07 B44(4) + I104(12) - I116(10)
   >= -2.9999883e+07
 c66: - 1e+07 B6(13) - 1e+07 B9(13) + 1e+07 B49(2) - I105(14) + I108(14)
   >= -1.9999115e+07
 c67: - 1e+07 B6(13) - 1e+07 B9(13) - 1e+07 B49(2) + I105(14) - I108(14)
   >= -2.9999615e+07
 c68: - 1e+07 B6(13) - 1e+07 B11(14) + 1e+07 B50(2) - I105(14) + I110(14)
   >= -1.9999794e+07
 c69: - 1e+07 B6(13) - 1e+07 B11(14) - 1e+07 B50(2) + I105(14) - I110(14)
   >= -2.9998825e+07
 c70: - 1e+07 B7(7) - 1e+07 B13(7) + 1e+07 B51(2) - I106(8) + I112(8)
   >= -1.999967e+07
 c71: - 1e+07 B7(7) - 1e+07 B13(7) - 1e+07 B51(2) + I106(8) - I112(8)
   >= -2.9999648e+07
 c72: - 1e+07 B6(13) - 1e+07 B14(9) + 1e+07 B52(2) - I105(14) + I113(10)
   >= -1.9999559e+07
 c73: - 1e+07 B6(13) - 1e+07 B14(9) - 1e+07 B52(2) + I105(14) - I113(10)
   >= -2.9999765e+07
 c74: - 1e+07 B6(13) - 1e+07 B9(13) + 1e+07 B57(2) + I105(14) - I108(14)
   >= -1.9999615e+07
 c75: - 1e+07 B6(13) - 1e+07 B9(13) - 1e+07 B57(2) - I105(14) + I108(14)
   >= -2.9999115e+07
 c76: - 1e+07 B9(13) - 1e+07 B11(14) + 1e+07 B59(2) - I108(14) + I110(14)
   >= -1.9999601e+07
 c77: - 1e+07 B9(13) - 1e+07 B11(14) - 1e+07 B59(2) + I108(14) - I110(14)
   >= -2.9999637e+07
 c78: - 1e+07 B9(13) - 1e+07 B14(9) + 1e+07 B61(2) - I108(14) + I113(10)
   >= -1.999939e+07
 c79: - 1e+07 B9(13) - 1e+07 B14(9) - 1e+07 B61(2) + I108(14) - I113(10)
   >= -2.9999105e+07
 c80: - 1e+07 B8(9) - 1e+07 B17(10) + 1e+07 B62(2) - I107(10) + I116(10)
   >= -1.9999694e+07
 c81: - 1e+07 B8(9) - 1e+07 B17(10) - 1e+07 B62(2) + I107(10) - I116(10)
   >= -2.9999683e+07
 c82: - 1e+07 B6(13) - 1e+07 B11(14) + 1e+07 B66(2) + I105(14) - I110(14)
   >= -1.9998825e+07
 c83: - 1e+07 B6(13) - 1e+07 B11(14) - 1e+07 B66(2) - I105(14) + I110(14)
   >= -2.9999794e+07
 c84: - 1e+07 B9(13) - 1e+07 B11(14) + 1e+07 B67(2) + I108(14) - I110(14)
   >= -1.9999637e+07
 c85: - 1e+07 B9(13) - 1e+07 B11(14) - 1e+07 B67(2) - I108(14) + I110(14)
   >= -2.9999601e+07
 c86: - 1e+07 B11(14) - 1e+07 B14(9) + 1e+07 B70(2) - I110(14) + I113(10)
   >= -1.999977e+07
 c87: - 1e+07 B11(14) - 1e+07 B14(9) - 1e+07 B70(2) + I110(14) - I113(10)
   >= -2.9999284e+07
 c88: - 1e+07 B10(8) - 1e+07 B16(8) + 1e+07 B71(2) - I109(8) + I115(8)
   >= -1.9998721e+07
 c89: - 1e+07 B10(8) - 1e+07 B16(8) - 1e+07 B71(2) + I109(8) - I115(8)
   >= -2.9999349e+07
 c90: - 1e+07 B12(11) - 1e+07 B15(11) + 1e+07 B79(2) - I111(12) + I114(12)
   >= -1.9999638e+07
 c91: - 1e+07 B12(11) - 1e+07 B15(11) - 1e+07 B79(2) + I111(12) - I114(12)
   >= -2.9999805e+07
 c92: - 1e+07 B12(11) - 1e+07 B15(11) + 1e+07 B87(2) + I111(12) - I114(12)
   >= -1.9999805e+07
 c93: - 1e+07 B12(11) - 1e+07 B15(11) - 1e+07 B87(2) - I111(12) + I114(12)
   >= -2.9999638e+07
 c94: I99(12) >= 0
 c95: I100(8) >= 0
 c96: I101(12) >= 0
 c97: I102(12) >= 0
 c98: - 480 B4(8) + I103(8) >= 0
 c99: I103(8) >= 0
 c100: - 480 B5(12) + I104(12) >= 0
 c101: I104(12) >= 0
 c102: I105(14) >= 0
 c103: I106(8) >= 0
 c104: I107(10) >= 0
 c105: I108(14) >= 0
 c106: - 480 B10(8) + I109(8) >= 0
 c107: I109(8) >= 0
 c108: - 480 B11(14) + I110(14) >= 0
 c109: I110(14) >= 0
 c110: I111(12) >= 0
 c111: I112(8) >= 0
 c112: I113(10) >= 0
 c113: I114(12) >= 0
 c114: - 480 B16(8) + I115(8) >= 0
 c115: I115(8) >= 0
 c116: - 480 B17(10) + I116(10) >= 0
 c117: I116(10) >= 0
Bounds
Binaries
 B0(11) B1(7) B2(11) B3(11) B4(8) B5(12) B6(13) B7(7) B8(9) B9(13) B10(8)
 B11(14) B12(11) B13(7) B14(9) B15(11) B16(8) B17(10) B18(0) B19(2) B20(0)
 B21(2) B22(0) B23(0) B24(4) B25(2) B26(0) B27(2) B28(0) B29(2) B30(0)
 B31(2) B32(0) B33(2) B34(2) B35(2) B36(0) B37(2) B38(0) B39(0) B40(2)
 B41(2) B42(0) B43(0) B44(4) B45(0) B46(0) B47(0) B48(0) B49(2) B50(2)
 B51(2) B52(2) B53(0) B54(0) B55(0) B56(0) B57(2) B58(0) B59(2) B60(0)
 B61(2) B62(2) B63(0) B64(0) B65(0) B66(2) B67(2) B68(0) B69(0) B70(2)
 B71(2) B72(0) B73(0) B74(0) B75(0) B76(0) B77(0) B78(0) B79(2) B80(0)
 B81(0) B82(0) B83(0) B84(0) B85(0) B86(0) B87(2) B88(0) B89(0) B90(0)
 B91(0) B92(0) B93(0) B94(0) B95(0) B96(0) B97(0) B98(0)
Generals
 I99(12) I100(8) I101(12) I102(12) I103(8) I104(12) I105(14) I106(8)
 I107(10) I108(14) I109(8) I110(14) I111(12) I112(8) I113(10) I114(12)
 I115(8) I116(10) I117(1)
End
